ALGO = Normal
EDIFF = 0.0001
ENCUT = 520.0
IBRION = -1
ICHARG = 11
ISIF = 3
ISMEAR = 0
ISPIN = 1
ISYM = 0
KPOINT_BSE = -1 0 0 0
LAECHG = True
LCHARG = False
LORBIT = 11
LREAL = Auto
LVHAR = True
LWAVE = False
NBANDS = 39
NELM = 100
NSW = 0
PREC = accurate
SIGMA = 0.001
