Si2
1.0
3.867484 0.000000 0.000000
1.933742 3.349340 0.000000
0.000000 -2.232891 3.157788
Si
2
direct
0.000000 0.000000 0.000000 Si
0.750000 0.500000 0.750000 Si
