Si2                                     
   1.00000000000000     
     3.8674835192384114   -0.0000000000000000   -0.0000000000000000
     1.9337417596192057    3.3493399736293967    0.0000000150724917
    -0.0000000000000000   -2.2328912873319680    3.1577875329860361
   Si
     2
Direct
 -0.0000000000000000 -0.0000000000000000 -0.0000000000000000
  0.7500000000000000  0.5000000000000000  0.7500000000000000
 
  0.00000000E+00  0.00000000E+00  0.00000000E+00
  0.00000000E+00  0.00000000E+00  0.00000000E+00
