pymatgen generated KPOINTS with grid density = 735 / atom
0
Gamma
9 9 9
