Au1
1.0
2.492907 0.000000 1.439280
0.830969 2.350335 1.439280
0.000000 0.000000 2.878561
Au
1
direct
0.000000 0.000000 0.000000 Au
