Cu2 Au2
1.0
3.667000 0.000000 0.000000
0.000000 3.960000 0.000000
0.000000 0.000000 3.960000
Cu Au
2 2
direct
0.500000 0.500000 0.000000 Cu
0.500000 0.000000 0.500000 Cu
0.000000 0.500000 0.500000 Au
0.000000 0.000000 0.000000 Au
