pymatgen generated KPOINTS with grid density = 1056 / atom
0
Gamma
11 11 11
