Cu1
1.0
2.209317 0.000000 1.275550
0.736439 2.082964 1.275550
0.000000 0.000000 2.551100
Cu
1
direct
0.000000 0.000000 0.000000 Cu
