Si2                                     
   1.00000000000000     
     3.8674840000000001    0.0000000000000000    0.0000000000000000
     1.9337420000000001    3.3493400000000002    0.0000000000000000
     0.0000000000000000   -2.2328910000000000    3.1577880000000000
   Si
     2
Direct
  0.0000000000000000  0.0000000000000000  0.0000000000000000
  0.7500000000000000  0.5000000000000000  0.7500000000000000
 
  0.00000000E+00  0.00000000E+00  0.00000000E+00
  0.00000000E+00  0.00000000E+00  0.00000000E+00
